(set-info :smt-lib-version 2.6)
(set-logic QF_SLIA)
(set-info :source |
Generated by: Denghang Hu
Generated on: 2023-03-29
Application: Evaluate string solvers
Description: The instance consists of:
(1) a regular membership predicate from the real world
(2) a regular membership predicate to sanitize danger letters in javascript such as <,>,&,",'
(3) a lower bound for string length
Target solver: Ostrich, Z3str3, CVC5
|)
(set-info :license "https://creativecommons.org/licenses/by/4.0/")
(set-info :category "industrial")
(set-info :status unknown)
        ;test regex (?:\\\\u05[dDeE][0-9a-fA-F]){2,}
(declare-const X String)
(assert (str.in_re X (re.++ (re.* (re.++ (str.to_re "\\") (re.++ (str.to_re "\\") (re.++ (str.to_re "u") (re.++ (str.to_re "05") (re.++ (re.union (str.to_re "d") (re.union (str.to_re "D") (re.union (str.to_re "e") (str.to_re "E")))) (re.union (re.range "0" "9") (re.union (re.range "a" "f") (re.range "A" "F"))))))))) ((_ re.loop 2 2) (re.++ (str.to_re "\\") (re.++ (str.to_re "\\") (re.++ (str.to_re "u") (re.++ (str.to_re "05") (re.++ (re.union (str.to_re "d") (re.union (str.to_re "D") (re.union (str.to_re "e") (str.to_re "E")))) (re.union (re.range "0" "9") (re.union (re.range "a" "f") (re.range "A" "F"))))))))))))
; sanitize danger characters:  < > ' " &
(assert (not (str.in_re X (re.++ re.all (re.union (str.to_re "\u{3c}") (str.to_re "\u{3e}") (str.to_re "\u{27}") (str.to_re "\u{22}") (str.to_re "\u{26}")) re.all))))
(assert (< 20 (str.len X)))
(check-sat)
(exit)
